p tdp 81 80
80 4
78 31
42 76
78 39
57 25
59 63
8 65
10 26
56 72
26 38
66 36
3 49
68 67
3 45
9 73
50 11
43 64
5 17
30 52
27 56
77 22
53 21
46 18
37 7
79 80
16 44
48 26
81 70
5 62
1 14
79 9
32 59
20 33
51 19
29 24
63 41
36 30
45 55
12 75
34 47
53 41
74 28
16 33
76 40
18 23
81 14
68 69
60 45
35 2
52 74
65 54
25 12
37 5
38 32
54 28
11 64
42 12
36 49
11 47
70 15
21 35
42 79
7 46
53 36
51 77
68 71
59 5
70 4
58 77
61 24
22 39
13 39
52 1
27 47
60 44
39 27
24 6
44 29
12 22
80 71
